p cnf 39 58
1 2 0
3 2 0
4 2 0
5 2 0
6 2 0
7 2 0
8 2 0
9 2 0
10 2 0
11 2 0
12 2 0
13 2 0
14 2 0
15 2 0
16 2 0
17 2 0
18 2 0
19 2 0
20 2 0
21 2 0
22 2 0
23 2 0
24 2 0
25 2 0
26 2 0
27 2 0
28 2 0
29 2 0
30 2 0
31 2 0
32 2 0
-1 -3 -4 -5 -6 -7 -8 -9 -10 -11 -12 -13 -14 -15 -16 -17 -18 -19 -20 -21 -22 -23 -24 -25 -26 -27 -28 -29 -30 -31 -32 -2 0
33 -2 -34 0
-33 2 -34 0
34 -33 -2 0
33 2 34 0
33 -2 -35 0
-33 2 -35 0
35 -33 -2 0
33 2 35 0
1 35 -36 0
1 -35 -36 0
-1 -35 36 0
-1 35 36 0
33 -2 -37 0
-33 2 -37 0
37 -33 -2 0
33 2 37 0
1 38 0
33 38 0
-1 -33 -38 0
4 -39 -38 0
-4 -39 38 0
39 -4 -38 0
4 38 39 0
1 39 0
1 -37 0
1 -36 0
c 1 k!0
c 4 k!1
c 3 k!2
c 5 k!3
c 6 k!4
c 7 k!5
c 8 k!6
c 9 k!7
c 10 k!8
c 11 k!9
c 12 k!10
c 13 k!11
c 14 k!12
c 15 k!13
c 16 k!14
c 17 k!15
c 18 k!16
c 19 k!17
c 20 k!18
c 21 k!19
c 22 k!20
c 23 k!21
c 24 k!22
c 25 k!23
c 26 k!24
c 27 k!25
c 28 k!26
c 29 k!27
c 30 k!28
c 31 k!29
c 32 k!30
c 33 k!31
c 2 k!32
c 35 k!34
c 37 k!36
c 34 k!33
c 36 k!35
c 38 k!37
c 39 k!38